(set-option :produce-models true)
(set-logic QF_UF)
(declare-fun p68() Bool)
(declare-fun p80() Bool)
(declare-fun p28() Bool)
(declare-fun p8() Bool)
(declare-fun p13() Bool)
(declare-fun p63() Bool)
(declare-fun p41() Bool)
(declare-fun p42() Bool)
(declare-fun p71() Bool)
(declare-fun p73() Bool)
(declare-fun p44() Bool)
(declare-fun p48() Bool)
(declare-fun p85() Bool)
(declare-fun p1() Bool)
(declare-fun p33() Bool)
(declare-fun p6() Bool)
(declare-fun p0() Bool)
(declare-fun p26() Bool)
(declare-fun p69() Bool)
(declare-fun p89() Bool)
(declare-fun p30() Bool)
(declare-fun p55() Bool)
(declare-fun p60() Bool)
(declare-fun p76() Bool)
(declare-fun p72() Bool)
(declare-fun p29() Bool)
(declare-fun p77() Bool)
(declare-fun p75() Bool)
(declare-fun p10() Bool)
(declare-fun p49() Bool)
(declare-fun p47() Bool)
(declare-fun p12() Bool)
(declare-fun p27() Bool)
(declare-fun p22() Bool)
(declare-fun p79() Bool)
(declare-fun p15() Bool)
(declare-fun p19() Bool)
(declare-fun p81() Bool)
(declare-fun p70() Bool)
(declare-fun p23() Bool)
(declare-fun p53() Bool)
(declare-fun p62() Bool)
(declare-fun p57() Bool)
(declare-fun p40() Bool)
(declare-fun p66() Bool)
(declare-fun p56() Bool)
(declare-fun p74() Bool)
(declare-fun p4() Bool)
(declare-fun p14() Bool)
(declare-fun p59() Bool)
(declare-fun p52() Bool)
(declare-fun p54() Bool)
(declare-fun p45() Bool)
(declare-fun p43() Bool)
(declare-fun p35() Bool)
(declare-fun p16() Bool)
(declare-fun p84() Bool)
(declare-fun p67() Bool)
(declare-fun p65() Bool)
(declare-fun p82() Bool)
(declare-fun p83() Bool)
(declare-fun p24() Bool)
(declare-fun p11() Bool)
(declare-fun p20() Bool)
(declare-fun p88() Bool)
(declare-fun p32() Bool)
(declare-fun p64() Bool)
(declare-fun p17() Bool)
(declare-fun p39() Bool)
(declare-fun p61() Bool)
(declare-fun p36() Bool)
(declare-fun p21() Bool)
(declare-fun p34() Bool)
(declare-fun p9() Bool)
(declare-fun p2() Bool)
(declare-fun p31() Bool)
(declare-fun p86() Bool)
(declare-fun p18() Bool)
(declare-fun p25() Bool)
(declare-fun p46() Bool)
(declare-fun p78() Bool)
(declare-fun p7() Bool)
(declare-fun p50() Bool)
(declare-fun p37() Bool)
(declare-fun p58() Bool)
(declare-fun p5() Bool)
(declare-fun p3() Bool)
(declare-fun p51() Bool)
(declare-fun p38() Bool)
(declare-fun p87() Bool)
(assert
(and (or p68 (not p80) (not p28)) (or p8 p13 p63) (or (not p41) p42 p71) (or p73 p44 p48) (or p85 (not p1) (not p33)) (or p6 p0 p26) (or (not p69) (not p89) p30) (or (not p55) p60 p1) (or p76 (not p72) (not p72)) (or p63 (not p76) (not p29)) (or p77 (not p75) p10) (or (not p73) (not p49) p47) (or (not p12) p68 p27) (or (not p44) (not p22) p79) (or (not p15) (not p19) (not p81)) (or p12 (not p55) p76) (or p15 p70 (not p8)) (or p23 p53 p62) (or (not p70) p57 (not p40)) (or (not p30) (not p66) p56) (or p74 (not p23) (not p81)) (or (not p4) p85 p8) (or (not p56) (not p75) p14) (or p22 (not p49) p59) (or p52 (not p54) p70) (or (not p45) (not p0) p89) (or p30 (not p57) (not p53)) (or p30 p43 (not p35)) (or p16 p56 p52) (or (not p59) p84 p30) (or p27 (not p67) p62) (or (not p65) (not p71) (not p41)) (or (not p22) (not p10) (not p82)) (or p83 (not p75) p6) (or (not p24) p19 (not p41)) (or p29 (not p11) p54) (or (not p12) (not p15) (not p79)) (or p81 p20 p33) (or p30 (not p68) (not p53)) (or p88 (not p32) (not p64)) (or p17 p56 p75) (or p77 p39 (not p81)) (or (not p72) (not p88) (not p74)) (or (not p61) p55 p57) (or p4 (not p28) (not p36)) (or p42 (not p21) p55) (or p34 (not p27) (not p79)) (or p32 p9 p16) (or (not p33) (not p71) p42) (or p74 (not p2) (not p24)) (or p28 (not p69) p22) (or p84 (not p55) (not p59)) (or p31 p15 (not p86)) (or (not p13) p12 (not p27)) (or (not p69) (not p16) p15) (or (not p67) p26 p57) (or p44 (not p66) (not p59)) (or p18 (not p25) (not p46)) (or p39 p89 (not p86)) (or p12 p78 (not p88)) (or p7 (not p9) (not p17)) (or p66 p80 (not p50)) (or (not p59) p35 p7) (or p76 p54 p36) (or p11 p42 p12) (or (not p78) (not p47) p40) (or p37 (not p69) (not p11)) (or (not p16) p84 p52) (or (not p47) (not p82) (not p71)) (or p54 p15 p69) (or p56 (not p65) p4) (or (not p86) p86 p27) (or p7 p8 (not p52)) (or p61 p54 p32) (or p58 p66 (not p12)) (or p59 (not p72) (not p43)) (or p81 (not p54) p5) (or p53 (not p41) (not p12)) (or p9 p86 (not p22)) (or p43 (not p43) (not p85)) (or p81 p29 (not p13)) (or (not p52) (not p64) p89) (or (not p67) (not p19) (not p8)) (or (not p30) (not p70) p64) (or p56 (not p52) p13) (or p25 p4 (not p54)) (or p43 p89 (not p19)) (or p49 (not p81) p54) (or (not p72) (not p79) (not p71)) (or p36 (not p46) (not p84)) (or p22 (not p16) p33) (or p37 p44 (not p22)) (or p89 p25 p80) (or (not p40) (not p47) (not p72)) (or (not p19) (not p21) p6) (or p35 (not p0) p75) (or (not p39) p65 (not p42)) (or (not p72) p25 (not p44)) (or (not p18) (not p85) (not p70)) (or (not p23) p62 p74) (or (not p2) p20 (not p27)) (or p40 p3 (not p32)) (or p18 (not p79) (not p40)) (or (not p89) (not p6) (not p2)) (or (not p44) (not p46) (not p47)) (or (not p72) p3 (not p78)) (or (not p23) (not p15) p29) (or (not p35) p59 p56) (or p19 (not p82) p5) (or (not p59) (not p0) (not p75)) (or p23 (not p15) p74) (or p50 (not p25) (not p79)) (or p7 (not p42) p34) (or (not p84) p71 p2) (or p7 p36 (not p42)) (or (not p27) (not p10) p64) (or (not p70) p28 p39) (or p14 (not p34) (not p14)) (or (not p77) (not p67) (not p62)) (or p17 (not p18) (not p81)) (or p10 p24 (not p65)) (or (not p76) (not p77) (not p7)) (or (not p41) (not p17) (not p40)) (or p77 p16 p89) (or (not p74) (not p19) (not p82)) (or p19 (not p17) (not p9)) (or (not p24) p37 p13) (or (not p45) p7 p36) (or p2 (not p32) p6) (or (not p25) (not p29) (not p27)) (or (not p24) (not p53) (not p8)) (or p28 p81 p34) (or (not p51) p69 p11) (or (not p77) p27 p2) (or (not p56) (not p51) p15) (or (not p28) (not p14) p25) (or p43 (not p73) p17) (or (not p73) (not p31) (not p21)) (or p70 p70 (not p48)) (or (not p31) (not p9) p67) (or (not p25) p42 (not p40)) (or p71 p27 p26) (or (not p54) p52 p3) (or p1 (not p27) (not p80)) (or (not p86) p62 (not p15)) (or p64 (not p32) p71) (or p23 (not p73) (not p84)) (or p3 (not p26) p66) (or p10 (not p1) (not p73)) (or p60 p51 (not p85)) (or p76 (not p12) (not p25)) (or (not p69) p83 p51) (or p54 (not p67) p77) (or (not p81) (not p34) (not p67)) (or (not p51) p68 (not p78)) (or p30 p84 p60) (or p41 p26 (not p36)) (or (not p50) (not p38) p14) (or p1 (not p73) p32) (or p48 p75 (not p37)) (or (not p5) p10 (not p86)) (or p65 p40 (not p38)) (or (not p21) (not p11) (not p50)) (or p81 (not p2) p65) (or p67 (not p53) p38) (or (not p47) (not p35) p10) (or p10 p13 (not p17)) (or (not p70) p49 p2) (or (not p83) p33 (not p10)) (or (not p74) p69 (not p61)) (or p1 (not p60) (not p18)) (or p15 (not p33) (not p21)) (or p75 p14 p11) (or (not p47) (not p80) (not p76)) (or (not p37) (not p61) p73) (or p60 p35 (not p71)) (or (not p87) p52 (not p28)) (or (not p5) (not p36) (not p28)) (or (not p57) p44 p55) (or p6 p36 p29) (or p56 p57 (not p69)) (or p51 p66 (not p23)) (or (not p57) (not p2) p62) (or p4 (not p38) p83) (or p4 (not p28) (not p1)) (or (not p38) (not p35) p69) (or p10 p86 (not p17)) (or (not p77) p35 (not p40)) (or p67 (not p18) (not p30)) (or (not p10) (not p12) p29) (or (not p85) p12 p47) (or (not p51) p22 (not p41)) (or p33 p56 p33) (or (not p67) (not p19) p42) (or p5 (not p48) (not p70)) (or (not p30) p12 p50) (or (not p35) p44 (not p19)) (or p58 p61 p4) (or (not p73) (not p33) (not p56)) (or (not p41) (not p20) p9) (or p29 (not p53) (not p74)) (or p56 (not p7) p38) (or p88 p47 p2) (or (not p10) (not p13) (not p68)) (or (not p37) (not p59) p9) (or (not p49) (not p43) (not p16)) (or (not p34) (not p49) (not p24)) (or p88 (not p59) p4) (or p66 (not p44) (not p47)) (or p61 p69 (not p10)) (or p78 p37 p30) (or p59 (not p34) p68) (or p63 p2 (not p80)) (or (not p15) p43 (not p20)) (or p17 p58 (not p12)) (or p65 p74 (not p89)) (or (not p54) p74 (not p29)) (or (not p79) p16 (not p57)) (or (not p53) p69 p78) (or p8 (not p44) (not p28)) (or (not p24) (not p74) (not p27)) (or (not p88) (not p55) p87) (or p89 p54 p76) (or p35 p0 (not p22)) (or (not p45) p74 (not p15)) (or (not p67) p65 p33) (or p14 (not p29) (not p61)) (or p34 p0 (not p30)) (or (not p3) p18 (not p44)) (or (not p37) p73 p28) (or p3 (not p56) (not p34)) (or p8 (not p11) p25) (or (not p65) (not p70) (not p60)) (or (not p36) (not p12) (not p1)) (or p86 p83 (not p1)) (or p46 p20 (not p35)) (or p59 (not p1) p6) (or p81 (not p63) p22) (or (not p2) p86 (not p22)) (or (not p4) p55 p33) (or (not p69) p4 (not p8)) (or (not p81) p40 p69) (or (not p64) (not p25) p88) (or (not p54) (not p34) (not p19)) (or p11 p22 p53) (or p9 (not p38) (not p7)) (or (not p87) (not p40) p85) (or (not p50) (not p51) (not p7)) (or (not p20) (not p36) (not p2)) (or p23 p69 p84) (or (not p51) (not p47) p25) (or p23 p71 (not p15)) (or p60 p65 p69) (or p85 (not p38) (not p29)) (or (not p70) (not p49) (not p23)) (or (not p78) p29 p80) (or p43 (not p79) p44) (or p48 p57 (not p12)) (or (not p69) (not p26) p65) (or (not p72) p45 p77) (or (not p67) (not p77) (not p61)) (or p64 (not p1) p41) (or p21 (not p82) p43) (or p2 p11 p5) (or p61 (not p31) (not p12)) (or p38 p69 (not p42)) (or (not p75) (not p75) (not p16)) (or p31 (not p59) (not p9)) (or p9 (not p71) (not p48)) (or (not p0) (not p89) (not p75)) (or p13 (not p3) p81) (or (not p7) p77 (not p67)) (or p37 p11 p69) (or p64 (not p10) (not p46)) (or (not p51) (not p17) (not p36)) (or (not p65) p29 p6) (or (not p48) p81 p32) (or (not p31) (not p0) p64) (or (not p46) p4 p63) (or p43 p65 p3) (or p29 p63 p49) (or (not p37) (not p63) (not p43)) (or (not p12) p61 p63) (or (not p1) (not p7) (not p11)) (or p80 (not p85) (not p29)) (or (not p65) p61 (not p60)) (or (not p10) (not p72) (not p48)) (or p13 (not p74) (not p62)) (or p1 (not p39) p39) (or p88 (not p17) (not p13)) (or (not p82) p22 (not p5)) (or p27 p35 p28) (or p6 p8 (not p45)) (or p83 (not p42) (not p76)) (or (not p12) (not p13) p23) (or p56 (not p78) p69) (or (not p23) (not p85) (not p39)) (or (not p77) p47 (not p45)) (or (not p66) (not p62) (not p40)) (or p64 p45 (not p84)) (or (not p37) p43 p66) (or (not p56) p28 (not p33)) (or (not p50) (not p6) p86) (or p54 p32 (not p38)) (or p51 (not p38) p40) (or (not p12) (not p81) (not p86)) (or p80 (not p71) p36) (or (not p51) (not p4) p28) (or p79 p18 p45) (or p63 (not p81) p31) (or (not p2) (not p39) (not p60)) (or p60 p80 p28) (or (not p21) p55 (not p10)) (or p20 p78 p35) (or p13 p34 p22) (or (not p40) (not p24) p62) (or (not p72) p15 p21) (or p27 (not p21) p47) (or p75 p77 p87) (or p33 p29 p32) (or (not p55) (not p63) p27) (or p4 p77 (not p66)) (or p72 (not p55) (not p11)) (or p43 (not p67) (not p64)) (or (not p24) p81 (not p47)) (or (not p70) (not p75) p63) (or p5 (not p63) p36) (or (not p13) (not p48) p27) (or p25 p11 (not p17)) (or (not p83) p72 p87) (or p35 (not p26) p0) (or (not p5) (not p1) p89) (or p19 p82 p75) (or (not p55) (not p8) p36) (or (not p85) p73 (not p78)) (or p69 (not p86) (not p82)) (or p73 p24 (not p20)) (or (not p26) p14 p10) (or p53 (not p61) p83) (or (not p58) p41 p26) (or p17 p59 p53) (or p13 p50 p53) (or (not p82) p6 (not p58)) (or (not p39) p64 (not p9)) (or (not p33) p17 p75) (or (not p35) (not p8) p8) (or (not p35) p55 p65) (or p76 (not p58) p25) (or (not p12) p83 p28) (or (not p15) (not p64) p44) (or p76 p42 p54) (or (not p13) (not p8) (not p1)) (or p10 (not p15) p84) (or (not p83) (not p16) (not p51)) (or p22 p71 (not p2)) (or p26 (not p62) p13) (or (not p19) p19 p25) (or p61 (not p60) p54) (or (not p55) p74 (not p32)) (or p11 p46 p75) (or p67 p22 (not p8)) (or p43 p75 p20) (or (not p36) (not p82) (not p13)) (or (not p8) (not p21) (not p75)) (or (not p66) (not p82) p37) (or (not p23) (not p64) p62) (or (not p11) p29 (not p75)) (or (not p43) p67 (not p64)) (or p55 (not p8) (not p39)) (or p65 p84 p7) (or (not p71) (not p64) p77) (or p44 p52 p89) (or p2 (not p23) (not p67)) (or p87 p35 (not p69)) (or p34 p13 p77) (or p34 p67 p83) (or p12 (not p18) p89) (or (not p89) p30 p23) (or p60 p14 p11) (or p48 (not p36) (not p80)) (or (not p64) (not p79) p17) (or (not p73) p22 p76) (or (not p9) (not p33) p0) (or p11 (not p51) p79) (or p3 (not p24) (not p40)) (or p69 (not p59) p85) (or (not p52) p60 (not p33)) (or p26 (not p1) (not p38)) (or (not p48) p44 p12) (or (not p49) (not p39) p11) (or (not p77) p2 (not p67)) (or (not p88) p2 p3) (or p46 p51 (not p64)) (or (not p1) (not p55) p42) (or (not p57) (not p57) (not p51)) (or p88 (not p12) p33) (or p81 (not p66) (not p19)) (or p28 (not p26) (not p15)) (or (not p61) (not p5) p74) (or (not p9) (not p72) (not p60)) (or (not p56) (not p66) p27) (or p34 p72 p69) (or (not p71) (not p51) p39) (or p11 p54 p30) (or (not p28) (not p0) p13) (or (not p32) p56 (not p75)) (or (not p59) (not p66) p74) (or p71 (not p20) (not p18)) (or (not p18) p3 p67) (or p29 p61 (not p14)) (or p10 p1 p25) (or p52 p85 (not p65)) (or p82 p45 p6) (or (not p17) (not p10) p84) (or p7 p2 (not p7)) (or (not p48) (not p35) p30) (or (not p57) (not p73) (not p67)) (or (not p7) p75 (not p38)) (or (not p53) p69 (not p69)) (or p28 (not p67) p2) (or (not p68) p25 p19) (or p61 (not p78) p7) (or p48 p24 (not p21)) (or p29 p51 (not p62)) (or p32 p39 p13) (or (not p39) p66 (not p23)) (or (not p88) p53 (not p59)) (or (not p49) p54 (not p61)) (or p83 (not p17) (not p47)) (or p7 (not p47) p68) (or p58 (not p37) p7) (or (not p49) p19 (not p40)) (or p13 (not p6) p57) (or p56 p40 (not p53)) (or (not p29) (not p60) (not p12)) (or p38 p67 p25) (or (not p38) p79 (not p7)) (or (not p12) (not p20) (not p55)) (or p7 p31 (not p59)) (or (not p86) p21 p56) (or (not p64) p44 p35) (or (not p25) (not p86) (not p18)) (or p42 (not p76) p22) (or (not p60) p25 (not p24)) (or (not p16) (not p79) p74) (or (not p84) (not p26) p29) (or (not p28) p87 (not p38)) (or p27 p78 p10))
)
(check-sat)
(get-model)
